
Log started (V11.0.0) Sat Apr 19 17:06:14 2008

Tried aggregator 1 time.
Reduced MIP has 520 rows, 10001 columns, and 20020 nonzeros.
Presolve time =    0.06 sec.
Clique table members: 500.
MIP emphasis: balance optimality and feasibility.
MIP search method: dynamic search.
Parallel mode: none, using 1 thread.
Root relaxation solution time =    0.37 sec.

        Nodes                                         Cuts/
   Node  Left     Objective  IInf  Best Integer     Best Node    ItCnt     Gap

*     0+    0                        27199.0000      352.1531      700   98.71%
*     0+    0                          369.0000      352.1531      700    4.57%
      0     0      353.0000    36      369.0000      Fract: 8      705    4.34%
      0     0      353.0000    38      369.0000     Covers: 1      709    4.34%
*     0+    0                          361.0000      353.0000      709    2.22%
      0     0      353.0000    42      361.0000     Covers: 1      712    2.22%
*     0+    0                          360.0000      353.0000      712    1.94%
      0     2      353.0000    42      360.0000      353.0000      712    1.94%
    100    93      355.0132    38      360.0000      353.0000     4421    1.94%
*   200+  166                          359.0000      353.0000    11247    1.67%
*   200+  162                          358.0000      353.0000    11247    1.40%
*   200+  151                          357.0000      353.0000    11247    1.12%
    200   153      356.0000    38      357.0000      353.0000    11247    1.12%
    300   204      354.0000    40      357.0000      353.0000    18689    1.12%
    400   290      354.0312    39      357.0000      353.0000    23488    1.12%
*   498+  248                          356.0000      353.0000    30548    0.84%
    500   250      353.0000    41      356.0000      353.0000    30567    0.84%
    600   275      355.0000    38      356.0000      353.0000    34871    0.84%
    700   283      353.0000    38      356.0000      353.0000    39110    0.84%
    800   289      353.0000    46      356.0000      353.0000    42710    0.84%
*   898+  266                          355.0000      353.0000    46681    0.56%
    900   269      354.0000    34      355.0000      353.0000    46690    0.56%
   1000   331      354.0000    42      355.0000      353.0000    54542    0.56%
Elapsed time =  53.61 sec. (tree size =  3.06 MB, solutions = 9)
   1100   415      354.0000    41      355.0000      353.0000    59681    0.56%
   1200   505      353.0000    42      355.0000      353.0000    63698    0.56%
   1300   597      354.0000    39      355.0000      353.0000    66513    0.56%
   1400   686      354.0000    36      355.0000      353.0000    70056    0.56%
   1500   772      353.0000    40      355.0000      353.0000    74194    0.56%
   1600   865      353.0000    54      355.0000      353.0000    78243    0.56%
   1700   951      354.0000    39      355.0000      353.0000    82952    0.56%
   1800  1027      353.0000    50      355.0000      353.0000    88145    0.56%
   1900  1117      354.0000    45      355.0000      353.0000    91913    0.56%
   2000  1206      354.0000    40      355.0000      353.0000    96139    0.56%
Elapsed time =  77.20 sec. (tree size = 12.15 MB, solutions = 9)
   2100  1293      353.0000    60      355.0000      353.0000   100211    0.56%
   2200  1390      354.0000    37      355.0000      353.0000   103374    0.56%
   2300  1470      353.0000    49      355.0000      353.0000   110048    0.56%
   2400  1567      354.0000    38      355.0000      353.0000   113366    0.56%
   2500  1649      354.0000    43      355.0000      353.0000   117756    0.56%
   2600  1749      354.0000    49      355.0000      353.0000   120120    0.56%
   2700  1842    infeasible            355.0000      353.0000   124446    0.56%
   2800  1934      354.0000    31      355.0000      353.0000   127907    0.56%
   2900  2027      354.0000    47      355.0000      353.0000   132078    0.56%
   3000  2120      354.0000    50      355.0000      353.0000   135677    0.56%
Elapsed time = 101.58 sec. (tree size = 22.97 MB, solutions = 9)
   3100  2203      353.0000    82      355.0000      353.0000   140862    0.56%
   3200  2295      353.0000    66      355.0000      353.0000   144542    0.56%
   3300  2391      354.0000    28      355.0000      353.0000   148251    0.56%
   3400  2481      353.0000    66      355.0000      353.0000   152270    0.56%
   3500  2574      353.0000    62      355.0000      353.0000   157498    0.56%
   3600  2660      354.0000    35      355.0000      353.0000   162917    0.56%
   3700  2747    infeasible            355.0000      353.0000   167840    0.56%
   3800  2838      354.0000    46      355.0000      353.0000   173897    0.56%
   3900  2927      354.0000    40      355.0000      353.0000   180112    0.56%
   4000  3021      353.0000    50      355.0000      353.0000   184334    0.56%
Elapsed time = 131.63 sec. (tree size = 34.84 MB, solutions = 9)
   4100  3115      354.0000    38      355.0000      353.0000   190255    0.56%
   4200  3201      354.0000    57      355.0000      353.0000   195572    0.56%
   4300  3295      353.0000    64      355.0000      353.0000   200652    0.56%
*  4398+ 1400                          354.0000      353.0000   204847    0.28%
   4400  1404      353.0000    97      354.0000      353.0000   205042    0.28%
   4500  1470      353.0000   154      354.0000      353.0000   224667    0.28%
   4600  1532      353.0000   110      354.0000      353.0000   251067    0.28%
   4700  1624      353.0000    74      354.0000      353.0000   259316    0.28%
   4800  1684      353.0000    92      354.0000      353.0000   283917    0.28%
   4900  1722    infeasible            354.0000      353.0000   325997    0.28%
   5000  1740      353.0000   135      354.0000      353.0000   382246    0.28%
Elapsed time = 305.94 sec. (tree size = 22.04 MB, solutions = 10)
   5100  1830      353.0000   111      354.0000      353.0000   393501    0.28%
   5200  1780      353.0000   131      354.0000      353.0000   497667    0.28%
   5300  1852      353.0000   137      354.0000      353.0000   518133    0.28%
   5400  1940    infeasible            354.0000      353.0000   529769    0.28%
   5500  2000      353.0000   140      354.0000      353.0000   558019    0.28%
   5600  2086      353.0000   157      354.0000      353.0000   574002    0.28%
   5700  2094      353.0000    87      354.0000      353.0000   645292    0.28%
   5800  2188      353.0000   103      354.0000      353.0000   654808    0.28%
   5900  2222      353.0000   125      354.0000      353.0000   702095    0.28%
   6000  2290    infeasible            354.0000      353.0000   729071    0.28%
Elapsed time = 689.22 sec. (tree size = 34.49 MB, solutions = 10)
   6100  2368      353.0000    78      354.0000      353.0000   752856    0.28%
   6200  2422      353.0000   120      354.0000      353.0000   781448    0.28%
   6300  2462    infeasible            354.0000      353.0000   825362    0.28%
   6400  2514      353.0000   117      354.0000      353.0000   869814    0.28%
   6500  2536      353.0000   129      354.0000      353.0000   921881    0.28%
   6600  2542    infeasible            354.0000      353.0000   996362    0.28%
   6700  2613    infeasible            354.0000      353.0000  1016619    0.28%
   6800  2653    infeasible            354.0000      353.0000  1063046    0.28%
   6900  2713      353.0000   156      354.0000      353.0000  1096095    0.28%
   7000  2757      353.0000   115      354.0000      353.0000  1140266    0.28%
Elapsed time = 1200.20 sec. (tree size = 46.93 MB, solutions = 10)
   7100  2847      353.0000   133      354.0000      353.0000  1152609    0.28%
   7200  2937      353.0000   115      354.0000      353.0000  1165388    0.28%
   7300  2979      353.0000   126      354.0000      353.0000  1214918    0.28%
   7400  3071      353.0000   131      354.0000      353.0000  1230338    0.28%
   7500  3109    infeasible            354.0000      353.0000  1284430    0.28%
   7600  3177      353.0000   124      354.0000      353.0000  1312373    0.28%
   7700  3259      353.0000   128      354.0000      353.0000  1333701    0.28%
   7800  3311      353.0000   145      354.0000      353.0000  1369342    0.28%
   7900  3361      353.0000   208      354.0000      353.0000  1416040    0.28%
   8000  3385      353.0000   133      354.0000      353.0000  1486016    0.28%
Elapsed time = 1684.16 sec. (tree size = 63.83 MB, solutions = 10)
   8100  3449      353.0000   174      354.0000      353.0000  1512933    0.28%
   8200  3503      353.0000   142      354.0000      353.0000  1554457    0.28%
   8300  3557      353.0000    95      354.0000      353.0000  1595765    0.28%
   8400  3581      353.0000   143      354.0000      353.0000  1671962    0.28%
   8500  3663      353.0000   110      354.0000      353.0000  1692227    0.28%
   8600  3697    infeasible            354.0000      353.0000  1754022    0.28%
   8700  3731      353.0000   115      354.0000      353.0000  1820243    0.28%
   8800  3797      353.0000   139      354.0000      353.0000  1848385    0.28%
   8900  3849      353.0000    77      354.0000      353.0000  1893036    0.28%
   9000  3919      353.0000   127      354.0000      353.0000  1918093    0.28%
Elapsed time = 2357.05 sec. (tree size = 80.26 MB, solutions = 10)
   9100  3945      353.0000   175      354.0000      353.0000  1989274    0.28%
   9200  4021    infeasible            354.0000      353.0000  2008448    0.28%
   9300  4067      353.0000   142      354.0000      353.0000  2062216    0.28%
   9400  4099    infeasible            354.0000      353.0000  2125425    0.28%
   9500  4171      353.0000    98      354.0000      353.0000  2155692    0.28%
   9600  4227      353.0000   132      354.0000      353.0000  2193747    0.28%
   9700  4259    infeasible            354.0000      353.0000  2253077    0.28%
   9800  4313      353.0000   201      354.0000      353.0000  2300774    0.28%
   9900  4355      353.0000    82      354.0000      353.0000  2349480    0.28%
  10000  4393    infeasible            354.0000      353.0000  2411844    0.28%
Elapsed time = 3130.09 sec. (tree size = 96.71 MB, solutions = 10)
  10100  4425    infeasible            354.0000      353.0000  2479925    0.28%
  10200  4505    infeasible            354.0000      353.0000  2506624    0.28%
  10300  4529      353.0000   182      354.0000      353.0000  2579730    0.28%
  10400  4569      353.0000   152      354.0000      353.0000  2631979    0.28%
  10500  4563    infeasible            354.0000      353.0000  2736625    0.28%
  10600  4595      353.0000   104      354.0000      353.0000  2806906    0.28%
  10700  4627      353.0000   110      354.0000      353.0000  2875724    0.28%
  10800  4697      353.0000   182      354.0000      353.0000  2906790    0.28%
  10900  4741      353.0000   174      354.0000      353.0000  2968974    0.28%
  11000  4791    infeasible            354.0000      353.0000  3016428    0.28%
Elapsed time = 4140.59 sec. (tree size = 112.92 MB, solutions = 10)
  11100  4855      353.0000   129      354.0000      353.0000  3042143    0.28%
  11200  4911      353.0000   123      354.0000      353.0000  3085241    0.28%
  11300  4991      353.0000    98      354.0000      353.0000  3113062    0.28%
  11400  5071      353.0000   120      354.0000      353.0000  3127954    0.28%
  11500  5143      353.0000   156      354.0000      353.0000  3160281    0.28%
  11600  5211      353.0000    90      354.0000      353.0000  3197521    0.28%
  11700  5241      353.0000   177      354.0000      353.0000  3256069    0.28%
  11800  5319      353.0000   141      354.0000      353.0000  3280518    0.28%
  11900  5391      353.0000   143      354.0000      353.0000  3305852    0.28%
  12000  5445      353.0000   162      354.0000      353.0000  3359486    0.28%
Elapsed time = 4761.97 sec. (tree size = 136.06 MB, solutions = 10)
Nodefile size =  8.85 MB (8.25 MB after compression)
  12100  5511      353.0000   120      354.0000      353.0000  3397498    0.28%
  12200  5581      353.0000   128      354.0000      353.0000  3437060    0.28%
  12300  5651      353.0000   118      354.0000      353.0000  3460721    0.28%
  12400  5699      353.0000   177      354.0000      353.0000  3511097    0.28%
  12500  5763      353.0000   143      354.0000      353.0000  3552224    0.28%
  12600  5843    infeasible            354.0000      353.0000  3570569    0.28%
  12700  5893      353.0000   180      354.0000      353.0000  3628231    0.28%
  12800  5941    infeasible            354.0000      353.0000  3682454    0.28%
  12900  6003      353.0000   150      354.0000      353.0000  3727157    0.28%
  13000  6065      353.0000   138      354.0000      353.0000  3765007    0.28%
Elapsed time = 5536.19 sec. (tree size = 160.34 MB, solutions = 10)
Nodefile size = 32.49 MB (30.32 MB after compression)
  13100  6129      353.0000   157      354.0000      353.0000  3798035    0.28%
  13200  6207      353.0000   131      354.0000      353.0000  3820024    0.28%
  13300  6259      353.0000   164      354.0000      353.0000  3884950    0.28%
  13400  6311      353.0000   160      354.0000      353.0000  3926513    0.28%
  13500  6379      353.0000   146      354.0000      353.0000  3959211    0.28%
  13600  6451      353.0000   137      354.0000      353.0000  3990676    0.28%
  13700  6529      353.0000   156      354.0000      353.0000  4017384    0.28%
  13800  6593      353.0000   143      354.0000      353.0000  4053899    0.28%
  13900  6685      353.0000   118      354.0000      353.0000  4067622    0.28%
  14000  6735      353.0000   136      354.0000      353.0000  4112655    0.28%
Elapsed time = 6254.08 sec. (tree size = 187.56 MB, solutions = 10)
Nodefile size = 60.06 MB (56.18 MB after compression)
  14100  6803      353.0000   148      354.0000      353.0000  4151287    0.28%
  14200  6893      353.0000   159      354.0000      353.0000  4167477    0.28%
  14300  6977      353.0000   168      354.0000      353.0000  4187385    0.28%
  14400  7053      353.0000   157      354.0000      353.0000  4217236    0.28%
  14500  7117      353.0000   119      354.0000      353.0000  4248479    0.28%
  14600  7195    infeasible            354.0000      353.0000  4269937    0.28%
  14700  7271      353.0000   152      354.0000      353.0000  4294084    0.28%
  14800  7341      353.0000   116      354.0000      353.0000  4330465    0.28%
  14900  7425      353.0000   135      354.0000      353.0000  4347840    0.28%
  15000  7493    infeasible            354.0000      353.0000  4378284    0.28%
Elapsed time = 6833.86 sec. (tree size = 217.99 MB, solutions = 10)
Nodefile size = 90.57 MB (84.90 MB after compression)
  15100  7563      353.0000   143      354.0000      353.0000  4409922    0.28%
  15200  7637    infeasible            354.0000      353.0000  4433788    0.28%
  15300  7713      353.0000   120      354.0000      353.0000  4466146    0.28%
  15400  7797      353.0000   176      354.0000      353.0000  4488250    0.28%

Cover cuts applied:  2594
Zero-half cuts applied:  1
Gomory fractional cuts applied:  5

Solution pool: 10 solutions saved.

MIP - Time limit exceeded, integer feasible:  Objective = 3.5400000000e+002
Current MIP best bound = 3.5300000000e+002 (gap = 1, 0.28%)
Solution time = 7200.09 sec.  Iterations = 4522540  Nodes = 15475 (7833)


Incumbent solution
Variable Name           Solution Value
Cmax                        354.000000
X_1_4                         1.000000
X_2_8                         1.000000
X_3_18                        1.000000
X_4_15                        1.000000
X_5_20                        1.000000
X_6_6                         1.000000
X_7_2                         1.000000
X_8_9                         1.000000
X_9_11                        1.000000
X_10_15                       1.000000
X_11_20                       1.000000
X_12_2                        1.000000
X_13_1                        1.000000
X_14_19                       1.000000
X_15_10                       1.000000
X_16_11                       1.000000
X_17_16                       1.000000
X_18_6                        1.000000
X_19_1                        1.000000
X_20_2                        1.000000
X_21_10                       1.000000
X_22_17                       1.000000
X_23_14                       1.000000
X_24_11                       1.000000
X_25_1                        1.000000
X_26_20                       1.000000
X_27_10                       1.000000
X_28_14                       1.000000
X_29_15                       1.000000
X_30_16                       1.000000
X_31_1                        1.000000
X_32_7                        1.000000
X_33_3                        1.000000
X_34_17                       1.000000
X_35_19                       1.000000
X_36_15                       1.000000
X_37_18                       1.000000
X_38_17                       1.000000
X_39_14                       1.000000
X_40_6                        1.000000
X_41_14                       1.000000
X_42_14                       1.000000
X_43_10                       1.000000
X_44_11                       1.000000
X_45_10                       1.000000
X_46_2                        1.000000
X_47_5                        1.000000
X_48_3                        1.000000
X_49_9                        1.000000
X_50_9                        1.000000
X_51_4                        1.000000
X_52_20                       1.000000
X_53_13                       1.000000
X_54_10                       1.000000
X_55_19                       1.000000
X_56_10                       1.000000
X_57_11                       1.000000
X_58_10                       1.000000
X_59_4                        1.000000
X_60_4                        1.000000
X_61_19                       1.000000
X_62_2                        1.000000
X_63_7                        1.000000
X_64_13                       1.000000
X_65_16                       1.000000
X_66_11                       1.000000
X_67_10                       1.000000
X_68_8                        1.000000
X_69_10                       1.000000
X_70_20                       1.000000
X_71_7                        1.000000
X_72_18                       1.000000
X_73_20                       1.000000
X_74_7                        1.000000
X_75_4                        1.000000
X_76_13                       1.000000
X_77_4                        1.000000
X_78_20                       1.000000
X_79_3                        1.000000
X_80_5                        1.000000
X_81_3                        1.000000
X_82_18                       1.000000
X_83_5                        1.000000
X_84_10                       1.000000
X_85_7                        1.000000
X_86_6                        1.000000
X_87_7                        1.000000
X_88_12                       1.000000
X_89_13                       1.000000
X_90_17                       1.000000
X_91_4                        1.000000
X_92_19                       1.000000
X_93_11                       1.000000
X_94_14                       1.000000
X_95_9                        1.000000
X_96_10                       1.000000
X_97_5                        1.000000
X_98_4                        1.000000
X_99_3                        1.000000
X_100_11                      1.000000
X_101_4                       1.000000
X_102_16                      1.000000
X_103_19                      1.000000
X_104_6                       1.000000
X_105_2                       1.000000
X_106_5                       1.000000
X_107_20                      1.000000
X_108_13                      1.000000
X_109_10                      1.000000
X_110_14                      1.000000
X_111_8                       1.000000
X_112_3                       1.000000
X_113_18                      1.000000
X_114_8                       1.000000
X_115_14                      1.000000
X_116_14                      1.000000
X_117_14                      1.000000
X_118_12                      1.000000
X_119_13                      1.000000
X_120_15                      1.000000
X_121_8                       1.000000
X_122_8                       1.000000
X_123_6                       1.000000
X_124_14                      1.000000
X_125_20                      1.000000
X_126_10                      1.000000
X_127_17                      1.000000
X_128_17                      1.000000
X_129_12                      1.000000
X_130_6                       1.000000
X_131_8                       1.000000
X_132_15                      1.000000
X_133_16                      1.000000
X_134_8                       1.000000
X_135_4                       1.000000
X_136_17                      1.000000
X_137_2                       1.000000
X_138_19                      1.000000
X_139_8                       1.000000
X_140_4                       1.000000
X_141_13                      1.000000
X_142_12                      1.000000
X_143_10                      1.000000
X_144_8                       1.000000
X_145_9                       1.000000
X_146_20                      1.000000
X_147_13                      1.000000
X_148_12                      1.000000
X_149_18                      1.000000
X_150_3                       1.000000
X_151_18                      1.000000
X_152_6                       1.000000
X_153_17                      1.000000
X_154_14                      1.000000
X_155_9                       1.000000
X_156_19                      1.000000
X_157_5                       1.000000
X_158_14                      1.000000
X_159_18                      1.000000
X_160_15                      1.000000
X_161_8                       1.000000
X_162_11                      1.000000
X_163_17                      1.000000
X_164_4                       1.000000
X_165_17                      1.000000
X_166_16                      1.000000
X_167_4                       1.000000
X_168_15                      1.000000
X_169_12                      1.000000
X_170_18                      1.000000
X_171_3                       1.000000
X_172_12                      1.000000
X_173_10                      1.000000
X_174_10                      1.000000
X_175_18                      1.000000
X_176_4                       1.000000
X_177_12                      1.000000
X_178_4                       1.000000
X_179_18                      1.000000
X_180_15                      1.000000
X_181_1                       1.000000
X_182_5                       1.000000
X_183_12                      1.000000
X_184_3                       1.000000
X_185_20                      1.000000
X_186_5                       1.000000
X_187_16                      1.000000
X_188_20                      1.000000
X_189_14                      1.000000
X_190_12                      1.000000
X_191_5                       1.000000
X_192_15                      1.000000
X_193_5                       1.000000
X_194_16                      1.000000
X_195_20                      1.000000
X_196_7                       1.000000
X_197_3                       1.000000
X_198_1                       1.000000
X_199_20                      1.000000
X_200_19                      1.000000
X_201_8                       1.000000
X_202_8                       1.000000
X_203_7                       1.000000
X_204_10                      1.000000
X_205_7                       1.000000
X_206_6                       1.000000
X_207_20                      1.000000
X_208_1                       1.000000
X_209_10                      1.000000
X_210_19                      1.000000
X_211_2                       1.000000
X_212_18                      1.000000
X_213_8                       1.000000
X_214_13                      1.000000
X_215_1                       1.000000
X_216_13                      1.000000
X_217_6                       1.000000
X_218_13                      1.000000
X_219_4                       1.000000
X_220_3                       1.000000
X_221_13                      1.000000
X_222_16                      1.000000
X_223_16                      1.000000
X_224_8                       1.000000
X_225_3                       1.000000
X_226_15                      1.000000
X_227_19                      1.000000
X_228_17                      1.000000
X_229_17                      1.000000
X_230_12                      1.000000
X_231_20                      1.000000
X_232_16                      1.000000
X_233_12                      1.000000
X_234_17                      1.000000
X_235_10                      1.000000
X_236_16                      1.000000
X_237_1                       1.000000
X_238_19                      1.000000
X_239_16                      1.000000
X_240_17                      1.000000
X_241_15                      1.000000
X_242_13                      1.000000
X_243_7                       1.000000
X_244_2                       1.000000
X_245_6                       1.000000
X_246_12                      1.000000
X_247_13                      1.000000
X_248_2                       1.000000
X_249_11                      1.000000
X_250_1                       1.000000
X_251_18                      1.000000
X_252_12                      1.000000
X_253_7                       1.000000
X_254_1                       1.000000
X_255_7                       1.000000
X_256_1                       1.000000
X_257_7                       1.000000
X_258_3                       1.000000
X_259_11                      1.000000
X_260_5                       1.000000
X_261_20                      1.000000
X_262_18                      1.000000
X_263_2                       1.000000
X_264_20                      1.000000
X_265_11                      1.000000
X_266_3                       1.000000
X_267_10                      1.000000
X_268_9                       1.000000
X_269_14                      1.000000
X_270_1                       1.000000
X_271_13                      1.000000
X_272_1                       1.000000
X_273_18                      1.000000
X_274_10                      1.000000
X_275_17                      1.000000
X_276_3                       1.000000
X_277_9                       1.000000
X_278_12                      1.000000
X_279_6                       1.000000
X_280_4                       1.000000
X_281_8                       1.000000
X_282_15                      1.000000
X_283_14                      1.000000
X_284_1                       1.000000
X_285_5                       1.000000
X_286_10                      1.000000
X_287_14                      1.000000
X_288_13                      1.000000
X_289_9                       1.000000
X_290_13                      1.000000
X_291_20                      1.000000
X_292_19                      1.000000
X_293_8                       1.000000
X_294_6                       1.000000
X_295_19                      1.000000
X_296_3                       1.000000
X_297_17                      1.000000
X_298_20                      1.000000
X_299_6                       1.000000
X_300_5                       1.000000
X_301_8                       1.000000
X_302_9                       1.000000
X_303_17                      1.000000
X_304_5                       1.000000
X_305_12                      1.000000
X_306_7                       1.000000
X_307_19                      1.000000
X_308_19                      1.000000
X_309_15                      1.000000
X_310_7                       1.000000
X_311_11                      1.000000
X_312_16                      1.000000
X_313_1                       1.000000
X_314_18                      1.000000
X_315_20                      1.000000
X_316_4                       1.000000
X_317_9                       1.000000
X_318_19                      1.000000
X_319_17                      1.000000
X_320_12                      1.000000
X_321_18                      1.000000
X_322_4                       1.000000
X_323_8                       1.000000
X_324_11                      1.000000
X_325_16                      1.000000
X_326_16                      1.000000
X_327_13                      1.000000
X_328_11                      1.000000
X_329_9                       1.000000
X_330_13                      1.000000
X_331_10                      1.000000
X_332_7                       1.000000
X_333_7                       1.000000
X_334_1                       1.000000
X_335_16                      1.000000
X_336_11                      1.000000
X_337_7                       1.000000
X_338_17                      1.000000
X_339_13                      1.000000
X_340_1                       1.000000
X_341_13                      1.000000
X_342_18                      1.000000
X_343_1                       1.000000
X_344_9                       1.000000
X_345_15                      1.000000
X_346_9                       1.000000
X_347_2                       1.000000
X_348_6                       1.000000
X_349_5                       1.000000
X_350_6                       1.000000
X_351_8                       1.000000
X_352_8                       1.000000
X_353_11                      1.000000
X_354_7                       1.000000
X_355_10                      1.000000
X_356_5                       1.000000
X_357_14                      1.000000
X_358_9                       1.000000
X_359_11                      1.000000
X_360_19                      1.000000
X_361_19                      1.000000
X_362_19                      1.000000
X_363_9                       1.000000
X_364_1                       1.000000
X_365_2                       1.000000
X_366_14                      1.000000
X_367_5                       1.000000
X_368_2                       1.000000
X_369_11                      1.000000
X_370_7                       1.000000
X_371_12                      1.000000
X_372_20                      1.000000
X_373_8                       1.000000
X_374_9                       1.000000
X_375_9                       1.000000
X_376_15                      1.000000
X_377_17                      1.000000
X_378_12                      1.000000
X_379_17                      1.000000
X_380_5                       1.000000
X_381_6                       1.000000
X_382_17                      1.000000
X_383_4                       1.000000
X_384_2                       1.000000
X_385_2                       1.000000
X_386_2                       1.000000
X_387_8                       1.000000
X_388_5                       1.000000
X_389_7                       1.000000
X_390_4                       1.000000
X_391_3                       1.000000
X_392_10                      1.000000
X_393_16                      1.000000
X_394_6                       1.000000
X_395_15                      1.000000
X_396_18                      1.000000
X_397_13                      1.000000
X_398_2                       1.000000
X_399_11                      1.000000
X_400_20                      1.000000
X_401_2                       1.000000
X_402_8                       1.000000
X_403_1                       1.000000
X_404_12                      1.000000
X_405_7                       1.000000
X_406_3                       1.000000
X_407_11                      1.000000
X_408_12                      1.000000
X_409_5                       1.000000
X_410_9                       1.000000
X_411_15                      1.000000
X_412_17                      1.000000
X_413_2                       1.000000
X_414_13                      1.000000
X_415_15                      1.000000
X_416_3                       1.000000
X_417_12                      1.000000
X_418_14                      1.000000
X_419_20                      1.000000
X_420_10                      1.000000
X_421_2                       1.000000
X_422_16                      1.000000
X_423_9                       1.000000
X_424_13                      1.000000
X_425_18                      1.000000
X_426_9                       1.000000
X_427_6                       1.000000
X_428_4                       1.000000
X_429_12                      1.000000
X_430_9                       1.000000
X_431_15                      1.000000
X_432_1                       1.000000
X_433_1                       1.000000
X_434_15                      1.000000
X_435_18                      1.000000
X_436_2                       1.000000
X_437_5                       1.000000
X_438_9                       1.000000
X_439_14                      1.000000
X_440_5                       1.000000
X_441_11                      1.000000
X_442_14                      1.000000
X_443_7                       1.000000
X_444_6                       1.000000
X_445_5                       1.000000
X_446_11                      1.000000
X_447_2                       1.000000
X_448_18                      1.000000
X_449_12                      1.000000
X_450_6                       1.000000
X_451_4                       1.000000
X_452_16                      1.000000
X_453_13                      1.000000
X_454_7                       1.000000
X_455_1                       1.000000
X_456_3                       1.000000
X_457_3                       1.000000
X_458_14                      1.000000
X_459_2                       1.000000
X_460_14                      1.000000
X_461_4                       1.000000
X_462_1                       1.000000
X_463_14                      1.000000
X_464_18                      1.000000
X_465_20                      1.000000
X_466_9                       1.000000
X_467_14                      1.000000
X_468_13                      1.000000
X_469_6                       1.000000
X_470_19                      1.000000
X_471_4                       1.000000
X_472_13                      1.000000
X_473_9                       1.000000
X_474_16                      1.000000
X_475_20                      1.000000
X_476_12                      1.000000
X_477_18                      1.000000
X_478_3                       1.000000
X_479_16                      1.000000
X_480_4                       1.000000
X_481_9                       1.000000
X_482_15                      1.000000
X_483_8                       1.000000
X_484_15                      1.000000
X_485_3                       1.000000
X_486_20                      1.000000
X_487_6                       1.000000
X_488_11                      1.000000
X_489_5                       1.000000
X_490_16                      1.000000
X_491_5                       1.000000
X_492_15                      1.000000
X_493_16                      1.000000
X_494_15                      1.000000
X_495_3                       1.000000
X_496_6                       1.000000
X_497_18                      1.000000
X_498_11                      1.000000
X_499_11                      1.000000
X_500_18                      1.000000
All other variables in the range 1-10001 are 0.
